NAME: bip_50_3
TYPE: TSP
COMMENT: bip_50_3
DIMENSION: 50
EDGE_WEIGHT_TYPE: EUC_2D
NODE_COORD_SECTION
1 46 1
2 44 27
3 68 98
4 89 18
5 56 25
6 48 49
7 1 52
8 76 9
9 25 20
10 16 11
11 64 99
12 68 71
13 29 59
14 85 36
15 66 4
16 85 77
17 24 81
18 19 37
19 82 93
20 99 73
21 83 28
22 33 10
23 0 57
24 54 11
25 67 38
26 438 480
27 400 480
28 469 425
29 448 422
30 407 493
31 473 416
32 469 492
33 412 470
34 416 468
35 410 487
36 490 480
37 481 404
38 414 437
39 400 489
40 498 465
41 457 460
42 413 416
43 431 403
44 496 453
45 411 463
46 422 431
47 429 430
48 402 461
49 442 422
50 476 410
